135 5
10 10 10 10 10 

0 0 0 0 0 0 2 2 14 
0 0 0 0 0 0 5 3 5 8 9 12 
1 0 1 0 0 0 2 11 4 
2 0 5 0 0 0 1 6 
7 0 3 0 0 0 1 6 
5 0 10 0 0 0 1 7 
8 0 5 0 0 0 1 10 
8 0 9 0 0 0 1 11 
3 0 8 0 0 0 1 10 
5 0 3 0 0 0 1 13 
2 0 3 0 0 0 1 13 
7 0 3 0 0 0 1 13 
0 0 0 0 0 0 1 26 
0 0 0 0 0 0 5 15 17 18 20 24 
10 1 0 0 0 0 2 23 16 
2 5 0 0 0 0 1 19 
5 9 0 0 0 0 2 23 22 
4 9 0 0 0 0 2 23 22 
3 3 0 0 0 0 1 21 
4 6 0 0 0 0 1 21 
7 3 0 0 0 0 1 22 
1 5 0 0 0 0 1 25 
9 4 0 0 0 0 1 25 
3 5 0 0 0 0 1 25 
0 0 0 0 0 0 1 26 
0 0 0 0 0 0 2 27 39 
0 0 0 0 0 0 3 28 36 37 
9 0 0 0 1 0 2 32 29 
5 0 0 0 2 0 2 35 30 
4 0 0 0 5 0 1 31 
9 0 0 0 5 0 1 33 
6 0 0 0 8 0 1 34 
4 0 0 0 9 0 1 38 
7 0 0 0 4 0 1 38 
7 0 0 0 6 0 1 38 
1 0 0 0 4 0 1 38 
3 0 0 0 6 0 1 38 
0 0 0 0 0 0 1 51 
0 0 0 0 0 0 1 40 
4 1 0 0 0 0 2 44 41 
1 3 0 0 0 0 3 49 43 42 
10 5 0 0 0 0 3 48 46 45 
4 9 0 0 0 0 2 46 45 
9 5 0 0 0 0 2 46 45 
1 4 0 0 0 0 1 47 
1 7 0 0 0 0 1 47 
10 5 0 0 0 0 1 50 
4 3 0 0 0 0 1 50 
5 8 0 0 0 0 1 50 
0 0 0 0 0 0 1 51 
0 0 0 0 0 0 2 52 64 
0 0 0 0 0 0 3 53 54 55 
1 0 0 1 0 0 2 59 56 
2 0 0 4 0 0 2 57 56 
5 0 0 4 0 0 1 56 
8 0 0 9 0 0 1 58 
1 0 0 6 0 0 1 58 
10 0 0 5 0 0 1 60 
7 0 0 5 0 0 1 60 
8 0 0 6 0 0 2 62 61 
6 0 0 5 0 0 1 63 
7 0 0 5 0 0 1 63 
0 0 0 0 0 0 1 76 
0 0 0 0 0 0 1 65 
4 0 0 0 1 0 2 74 66 
3 0 0 0 5 0 3 73 69 67 
8 0 0 0 9 0 3 72 71 68 
3 0 0 0 4 0 1 70 
5 0 0 0 4 0 1 70 
2 0 0 0 4 0 1 75 
6 0 0 0 6 0 1 75 
8 0 0 0 5 0 1 75 
9 0 0 0 4 0 1 75 
6 0 0 0 8 0 1 75 
0 0 0 0 0 0 1 76 
0 0 0 0 0 0 2 77 89 
0 0 0 0 0 0 1 78 
1 0 0 0 0 1 2 83 79 
2 0 0 0 0 8 3 87 81 80 
3 0 0 0 0 6 3 86 84 82 
7 0 0 0 0 4 2 85 84 
1 0 0 0 0 4 1 85 
6 0 0 0 0 4 1 84 
9 0 0 0 0 3 1 88 
2 0 0 0 0 5 1 88 
9 0 0 0 0 9 1 88 
4 0 0 0 0 6 1 88 
0 0 0 0 0 0 2 111 123 
0 0 0 0 0 0 2 90 109 
1 0 1 0 0 5 1 91 
6 0 6 0 0 2 2 108 92 
10 0 3 0 0 7 2 100 93 
6 0 5 0 0 6 1 94 
4 0 5 0 0 3 4 106 105 97 95 
5 0 5 0 0 4 1 96 
5 0 5 0 0 6 3 104 103 98 
7 0 4 0 0 5 2 103 98 
8 0 5 0 0 5 2 102 99 
6 0 5 0 0 3 1 101 
6 0 6 0 0 7 1 107 
7 0 8 0 0 4 1 110 
9 0 5 0 0 4 1 110 
3 0 3 0 0 5 1 110 
2 0 5 0 0 5 1 110 
1 0 5 0 0 10 1 110 
9 0 7 0 0 7 1 110 
8 0 8 0 0 3 1 110 
3 0 5 0 0 4 1 110 
5 0 4 0 0 5 1 110 
0 0 0 0 0 0 1 135 
0 0 0 0 0 0 2 112 114 
6 0 0 0 1 0 1 113 
1 0 0 0 4 0 2 117 115 
1 0 0 0 5 0 2 116 115 
1 0 0 0 6 0 2 119 118 
3 0 0 0 5 0 2 119 118 
8 0 0 0 7 0 2 120 118 
3 0 0 0 5 0 1 121 
7 0 0 0 6 0 1 120 
4 0 0 0 9 0 1 122 
5 0 0 0 2 0 1 122 
0 0 0 0 0 0 1 135 
0 0 0 0 0 0 5 124 128 131 132 133 
10 0 0 0 0 1 2 130 125 
9 0 0 0 0 5 1 126 
5 0 0 0 0 10 1 127 
5 0 0 0 0 8 1 129 
9 0 0 0 0 7 1 129 
5 0 0 0 0 1 1 134 
4 0 0 0 0 5 1 134 
8 0 0 0 0 6 1 134 
3 0 0 0 0 3 1 134 
5 0 0 0 0 4 1 134 
0 0 0 0 0 0 1 135 
0 0 0 0 0 0 0 
